Version identifier: 22.1.1.0 | 2022-11-28 | 9160aff4d
CPXPARAM_ClockType                               1
CPXPARAM_Read_DataCheck                          1
CPXPARAM_Threads                                 1
CPXPARAM_TimeLimit                               7200
CPXPARAM_MIP_Tolerances_AbsMIPGap                0
CPXPARAM_MIP_Tolerances_MIPGap                   0
CPXPARAM_MIP_Tolerances_Integrality              0
Tried aggregator 2 times.
MIP Presolve eliminated 13344 rows and 5508 columns.
MIP Presolve modified 2716 coefficients.
Aggregator did 564 substitutions.
Reduced MIP has 2947 rows, 2068 columns, and 7586 nonzeros.
Reduced MIP has 2068 binaries, 0 generals, 0 SOSs, and 0 indicators.
Presolve time = 0.02 sec. (16.75 ticks)
Found incumbent of value 0.000000 after 0.03 sec. (19.60 ticks)
Probing time = 0.00 sec. (2.40 ticks)
Tried aggregator 1 time.
Detecting symmetries...
Reduced MIP has 2947 rows, 2068 columns, and 7586 nonzeros.
Reduced MIP has 2068 binaries, 0 generals, 0 SOSs, and 0 indicators.
Presolve time = 0.01 sec. (6.97 ticks)
Probing time = 0.00 sec. (2.37 ticks)
Clique table members: 3608.
MIP emphasis: balance optimality and feasibility.
MIP search method: dynamic search.
Parallel mode: none, using 1 thread.
Root relaxation solution time = 0.05 sec. (38.89 ticks)

        Nodes                                         Cuts/
   Node  Left     Objective  IInf  Best Integer    Best Bound    ItCnt     Gap

*     0+    0                            0.0000     2632.0000              --- 
      0     0     1316.0000   753        0.0000     1316.0000     1731     --- 
*     0+    0                         1128.0000     1316.0000            16.67%
      0     0        cutoff           1128.0000                   2148     --- 
Elapsed time = 0.28 sec. (210.17 ticks, tree = 0.01 MB, solutions = 2)

Zero-half cuts applied:  188
Lift and project cuts applied:  21

Root node processing (before b&c):
  Real time             =    0.29 sec. (210.52 ticks)
Sequential b&c:
  Real time             =    0.00 sec. (0.00 ticks)
                          ------------
Total (root+branch&cut) =    0.29 sec. (210.52 ticks)
Solution is feasible.

---------------------
@@@ MIP_optimal
>>> Benchmark mc2024_track1_184.cnf k 5 OPT 1128 TimeCost 2.597179889678955 TimeSolve 0.3057382106781006 TimeRead 0.006258726119995117 TimeTrans 2.2851829528808594
